language ESSENCE' 1.0
$ minion Nodes: 1
$ minion TotalTime: 0.000408
$ Savile Row TotalTime: 0.12
letting pain_tuple1_tuple1_tuple2 be [6, 7]
letting pain_tuple2 be [8, 9]
letting pain_tuple1_tuple1_tuple1 be [5, 4]
